graphs/DSJC125.1.col
p edge 125 736
e 1 5
e 1 29
e 1 44
e 1 53
e 1 79
e 1 80
e 1 113
e 1 120
e 1 123
e 2 6
e 2 11
e 2 17
e 2 27
e 2 32
e 2 40
e 2 46
e 2 79
e 2 105
e 3 25
e 3 35
e 3 38
e 3 41
e 3 56
e 3 62
e 3 63
e 3 88
e 3 112
e 3 115
e 3 116
e 4 8
e 4 9
e 4 38
e 4 69
e 4 72
e 4 99
e 4 105
e 4 113
e 5 13
e 5 19
e 5 30
e 5 35
e 5 65
e 5 77
e 5 82
e 5 84
e 5 92
e 5 118
e 5 121
e 6 9
e 6 27
e 6 38
e 6 42
e 6 56
e 6 67
e 6 69
e 6 75
e 6 82
e 6 109
e 6 120
e 6 123
e 7 14
e 7 21
e 7 41
e 7 42
e 7 51
e 7 73
e 7 77
e 7 98
e 8 15
e 8 19
e 8 21
e 8 42
e 8 57
e 8 58
e 8 62
e 8 65
e 8 103
e 8 105
e 8 110
e 9 14
e 9 28
e 9 49
e 9 52
e 9 61
e 9 66
e 9 73
e 9 77
e 9 84
e 9 91
e 9 96
e 9 100
e 9 101
e 9 111
e 10 16
e 10 25
e 10 31
e 10 33
e 10 46
e 10 62
e 10 67
e 10 81
e 10 87
e 10 110
e 10 118
e 11 19
e 11 32
e 11 63
e 11 67
e 11 71
e 11 77
e 11 88
e 11 96
e 11 103
e 11 106
e 11 121
e 11 122
e 12 16
e 12 18
e 12 34
e 12 35
e 12 42
e 12 46
e 12 47
e 12 52
e 12 72
e 12 73
e 12 100
e 12 103
e 13 14
e 13 23
e 13 37
e 13 46
e 13 83
e 13 84
e 13 96
e 13 99
e 13 101
e 13 116
e 13 119
e 14 52
e 14 57
e 14 61
e 14 66
e 14 76
e 14 79
e 14 80
e 14 86
e 14 87
e 14 100
e 14 103
e 15 30
e 15 35
e 15 55
e 15 66
e 15 69
e 15 92
e 15 93
e 15 116
e 16 35
e 16 41
e 16 45
e 16 59
e 16 62
e 16 78
e 16 87
e 16 98
e 16 104
e 16 105
e 16 106
e 16 114
e 17 22
e 17 28
e 17 38
e 17 51
e 17 52
e 17 58
e 17 61
e 17 84
e 17 94
e 17 98
e 17 99
e 17 102
e 17 112
e 17 113
e 17 122
e 18 32
e 18 66
e 18 75
e 18 84
e 18 90
e 18 114
e 18 123
e 19 28
e 19 42
e 19 48
e 19 66
e 19 98
e 19 113
e 19 114
e 20 36
e 20 47
e 20 81
e 20 85
e 20 97
e 20 102
e 20 124
e 21 24
e 21 65
e 21 74
e 21 84
e 21 92
e 22 37
e 22 41
e 22 50
e 22 54
e 22 67
e 22 68
e 22 82
e 22 85
e 22 86
e 22 90
e 22 91
e 22 120
e 23 50
e 23 71
e 23 98
e 23 110
e 23 113
e 23 115
e 23 123
e 24 29
e 24 35
e 24 45
e 24 48
e 24 50
e 24 62
e 24 63
e 24 73
e 24 76
e 24 84
e 24 88
e 24 91
e 24 112
e 24 120
e 25 42
e 25 46
e 25 55
e 25 69
e 25 74
e 25 106
e 25 111
e 26 39
e 26 46
e 26 57
e 26 65
e 26 72
e 26 82
e 26 88
e 26 93
e 26 116
e 26 117
e 27 31
e 27 36
e 27 51
e 27 70
e 27 92
e 27 98
e 27 99
e 27 103
e 27 106
e 27 116
e 27 120
e 27 124
e 28 30
e 28 52
e 28 53
e 28 66
e 28 70
e 28 74
e 28 81
e 29 43
e 29 54
e 29 63
e 29 64
e 29 69
e 29 118
e 30 47
e 30 53
e 30 57
e 30 63
e 30 76
e 31 61
e 31 67
e 31 70
e 31 74
e 31 85
e 31 91
e 31 115
e 31 119
e 32 34
e 32 50
e 32 62
e 32 70
e 32 76
e 32 85
e 32 86
e 32 98
e 32 101
e 32 103
e 32 105
e 32 112
e 33 43
e 33 63
e 33 86
e 33 93
e 33 121
e 33 124
e 34 44
e 34 70
e 34 103
e 34 125
e 35 36
e 35 41
e 35 43
e 35 51
e 35 56
e 35 63
e 35 67
e 35 68
e 35 76
e 35 96
e 35 117
e 36 46
e 36 47
e 36 57
e 36 61
e 36 65
e 36 91
e 36 102
e 36 103
e 37 40
e 37 49
e 37 59
e 37 62
e 37 65
e 37 66
e 37 67
e 37 77
e 37 82
e 37 88
e 38 56
e 38 63
e 38 88
e 38 94
e 38 103
e 38 116
e 39 63
e 39 72
e 39 74
e 39 79
e 39 94
e 39 105
e 40 71
e 40 72
e 40 76
e 40 82
e 40 85
e 40 92
e 40 111
e 40 119
e 40 124
e 41 50
e 41 51
e 41 80
e 41 89
e 41 108
e 41 110
e 41 122
e 42 51
e 42 59
e 42 64
e 42 84
e 42 88
e 42 102
e 42 106
e 42 107
e 42 108
e 42 122
e 43 49
e 43 55
e 43 57
e 43 68
e 43 78
e 44 53
e 44 56
e 44 87
e 44 90
e 44 97
e 44 120
e 44 122
e 45 62
e 45 64
e 45 67
e 45 83
e 45 89
e 45 93
e 45 107
e 45 122
e 46 47
e 46 91
e 46 106
e 46 111
e 47 50
e 47 61
e 47 67
e 47 99
e 47 103
e 47 105
e 47 115
e 47 120
e 47 124
e 48 51
e 48 52
e 48 54
e 48 65
e 48 73
e 48 86
e 48 93
e 48 100
e 48 111
e 49 52
e 49 55
e 49 58
e 49 78
e 49 84
e 49 98
e 49 99
e 49 104
e 49 107
e 49 110
e 49 114
e 49 125
e 50 55
e 50 57
e 50 73
e 50 83
e 50 91
e 50 110
e 50 117
e 51 59
e 51 63
e 51 73
e 51 82
e 51 89
e 51 106
e 51 107
e 51 108
e 51 114
e 51 117
e 51 122
e 52 58
e 52 61
e 52 63
e 52 80
e 52 92
e 52 102
e 52 111
e 52 118
e 52 121
e 53 62
e 53 68
e 53 84
e 53 90
e 53 91
e 53 111
e 53 113
e 53 115
e 53 122
e 54 55
e 54 62
e 54 83
e 54 97
e 54 112
e 54 118
e 55 58
e 55 62
e 55 64
e 55 77
e 55 97
e 55 119
e 55 124
e 56 60
e 56 62
e 56 71
e 56 84
e 56 99
e 56 105
e 56 118
e 57 59
e 57 60
e 57 64
e 57 84
e 57 114
e 58 61
e 58 64
e 58 65
e 58 77
e 58 82
e 58 97
e 58 100
e 58 101
e 58 108
e 58 112
e 58 119
e 59 69
e 59 74
e 59 93
e 59 103
e 59 122
e 60 77
e 60 95
e 60 110
e 60 125
e 61 77
e 61 93
e 61 95
e 61 96
e 61 111
e 62 66
e 62 75
e 62 89
e 62 90
e 62 92
e 62 111
e 62 125
e 63 69
e 63 84
e 63 123
e 63 124
e 64 66
e 64 77
e 64 91
e 64 106
e 64 108
e 64 115
e 64 119
e 64 121
e 65 69
e 65 75
e 65 85
e 65 103
e 66 74
e 66 75
e 66 101
e 66 102
e 66 108
e 66 112
e 66 122
e 67 69
e 67 116
e 68 80
e 68 86
e 68 91
e 68 97
e 68 116
e 68 119
e 69 77
e 69 78
e 69 79
e 69 83
e 69 96
e 69 97
e 69 99
e 69 103
e 69 109
e 70 90
e 70 93
e 70 94
e 70 106
e 70 118
e 71 87
e 71 94
e 71 98
e 71 110
e 71 113
e 71 119
e 72 73
e 72 78
e 72 87
e 72 91
e 72 107
e 72 113
e 72 124
e 73 92
e 73 97
e 73 105
e 74 79
e 74 82
e 74 89
e 74 92
e 74 104
e 74 107
e 75 96
e 75 98
e 75 109
e 76 80
e 76 83
e 76 87
e 76 94
e 76 99
e 76 104
e 76 110
e 77 84
e 77 95
e 77 96
e 77 97
e 77 101
e 77 106
e 77 107
e 77 110
e 78 82
e 78 84
e 78 91
e 78 110
e 78 112
e 78 115
e 79 85
e 79 89
e 79 111
e 80 82
e 80 91
e 80 97
e 80 105
e 80 106
e 80 114
e 80 117
e 80 125
e 81 82
e 81 86
e 81 91
e 81 94
e 81 123
e 82 86
e 82 106
e 82 117
e 83 93
e 83 98
e 83 104
e 83 105
e 83 108
e 83 114
e 83 123
e 84 89
e 84 95
e 84 97
e 84 101
e 84 102
e 84 110
e 84 116
e 84 122
e 85 100
e 85 104
e 85 125
e 86 92
e 86 102
e 88 91
e 88 105
e 88 106
e 88 107
e 88 123
e 89 98
e 89 99
e 89 110
e 89 115
e 89 122
e 90 94
e 90 97
e 91 93
e 91 96
e 91 120
e 92 95
e 92 115
e 92 123
e 93 97
e 93 106
e 93 115
e 93 118
e 93 121
e 93 123
e 94 95
e 94 114
e 96 97
e 96 113
e 96 117
e 96 122
e 97 101
e 97 110
e 98 111
e 98 114
e 99 120
e 99 125
e 100 106
e 100 115
e 101 122
e 102 104
e 102 124
e 103 115
e 103 117
e 104 105
e 104 122
e 105 124
e 105 125
e 107 116
e 107 122
e 108 110
e 108 113
e 108 119
e 108 122
e 109 115
e 109 118
e 110 115
e 110 118
e 110 124
e 110 125
e 112 113
e 113 121
e 114 115
e 114 119
e 115 118
e 116 119
e 116 123
e 117 119
e 117 124
e 118 119
e 118 121
e 122 124
