results/clicolcom_results/DSJC125.1.col.log
graphs/DSJC125.1.col
c found max clique of size 4
c chromatic number larger than clique number
c  found chromatic number: 5
time: 0
